param weight_4 : 1 :=
1 -0.8176121 
2 -0.7726752 
3 0.9237747 
4 0.8929855 
5 -0.7694451 
6 0.91993374 
7 -0.56655234 
8 -0.6613552 
9 0.9346621 
10 -0.6604188 
11 0.5885439 
12 0.76511484 
13 -0.65717214 
14 -0.5393039 
15 0.7351375 
16 -0.76101375
;
